c nIsolatedPIs 6
c maxPI 18
p cnf 246 685
c gate 19 4 11 0
4 -19 0
11 -19 0
-4 -11 19 0
c gate 20 5 10 0
5 -20 0
10 -20 0
-5 -10 20 0
c gate 21 19 20 0
19 -21 0
20 -21 0
-19 -20 21 0
c gate 22 3 12 0
3 -22 0
12 -22 0
-3 -12 22 0
c gate 23 -19 -20 0
-19 -23 0
-20 -23 0
19 20 23 0
c gate 24 -21 -23 0
-21 -24 0
-23 -24 0
21 23 24 0
c gate 25 22 24 0
22 -25 0
24 -25 0
-22 -24 25 0
c gate 26 -21 -25 0
-21 -26 0
-25 -26 0
21 25 26 0
c gate 27 4 12 0
4 -27 0
12 -27 0
-4 -12 27 0
c gate 28 5 11 0
5 -28 0
11 -28 0
-5 -11 28 0
c gate 29 6 10 0
6 -29 0
10 -29 0
-6 -10 29 0
c gate 30 -28 -29 0
-28 -30 0
-29 -30 0
28 29 30 0
c gate 31 28 29 0
28 -31 0
29 -31 0
-28 -29 31 0
c gate 32 -30 -31 0
-30 -32 0
-31 -32 0
30 31 32 0
c gate 33 27 32 0
27 -33 0
32 -33 0
-27 -32 33 0
c gate 34 -27 -32 0
-27 -34 0
-32 -34 0
27 32 34 0
c gate 35 -33 -34 0
-33 -35 0
-34 -35 0
33 34 35 0
c gate 36 -26 35 0
-26 -36 0
35 -36 0
26 -35 36 0
c gate 37 1 15 0
1 -37 0
15 -37 0
-1 -15 37 0
c gate 38 2 14 0
2 -38 0
14 -38 0
-2 -14 38 0
c gate 39 3 13 0
3 -39 0
13 -39 0
-3 -13 39 0
c gate 40 -38 -39 0
-38 -40 0
-39 -40 0
38 39 40 0
c gate 41 38 39 0
38 -41 0
39 -41 0
-38 -39 41 0
c gate 42 -40 -41 0
-40 -42 0
-41 -42 0
40 41 42 0
c gate 43 37 42 0
37 -43 0
42 -43 0
-37 -42 43 0
c gate 44 -37 -42 0
-37 -44 0
-42 -44 0
37 42 44 0
c gate 45 -43 -44 0
-43 -45 0
-44 -45 0
43 44 45 0
c gate 46 26 -35 0
26 -46 0
-35 -46 0
-26 35 46 0
c gate 47 -36 -46 0
-36 -47 0
-46 -47 0
36 46 47 0
c gate 48 45 47 0
45 -48 0
47 -48 0
-45 -47 48 0
c gate 49 -36 -48 0
-36 -49 0
-48 -49 0
36 48 49 0
c gate 50 -31 -33 0
-31 -50 0
-33 -50 0
31 33 50 0
c gate 51 6 11 0
6 -51 0
11 -51 0
-6 -11 51 0
c gate 52 7 10 0
7 -52 0
10 -52 0
-7 -10 52 0
c gate 53 -51 -52 0
-51 -53 0
-52 -53 0
51 52 53 0
c gate 54 51 52 0
51 -54 0
52 -54 0
-51 -52 54 0
c gate 55 -53 -54 0
-53 -55 0
-54 -55 0
53 54 55 0
c gate 56 5 12 0
5 -56 0
12 -56 0
-5 -12 56 0
c gate 57 55 -56 0
55 -57 0
-56 -57 0
-55 56 57 0
c gate 58 -55 56 0
-55 -58 0
56 -58 0
55 -56 58 0
c gate 59 -57 -58 0
-57 -59 0
-58 -59 0
57 58 59 0
c gate 60 50 59 0
50 -60 0
59 -60 0
-50 -59 60 0
c gate 61 -50 -59 0
-50 -61 0
-59 -61 0
50 59 61 0
c gate 62 -60 -61 0
-60 -62 0
-61 -62 0
60 61 62 0
c gate 63 2 15 0
2 -63 0
15 -63 0
-2 -15 63 0
c gate 64 3 14 0
3 -64 0
14 -64 0
-3 -14 64 0
c gate 65 4 13 0
4 -65 0
13 -65 0
-4 -13 65 0
c gate 66 -64 -65 0
-64 -66 0
-65 -66 0
64 65 66 0
c gate 67 64 65 0
64 -67 0
65 -67 0
-64 -65 67 0
c gate 68 -66 -67 0
-66 -68 0
-67 -68 0
66 67 68 0
c gate 69 63 68 0
63 -69 0
68 -69 0
-63 -68 69 0
c gate 70 -63 -68 0
-63 -70 0
-68 -70 0
63 68 70 0
c gate 71 -69 -70 0
-69 -71 0
-70 -71 0
69 70 71 0
c gate 72 62 -71 0
62 -72 0
-71 -72 0
-62 71 72 0
c gate 73 -62 71 0
-62 -73 0
71 -73 0
62 -71 73 0
c gate 74 -72 -73 0
-72 -74 0
-73 -74 0
72 73 74 0
c gate 75 -49 -74 0
-49 -75 0
-74 -75 0
49 74 75 0
c gate 76 49 74 0
49 -76 0
74 -76 0
-49 -74 76 0
c gate 77 -75 -76 0
-75 -77 0
-76 -77 0
75 76 77 0
c gate 78 1 16 0
1 -78 0
16 -78 0
-1 -16 78 0
c gate 79 -41 -43 0
-41 -79 0
-43 -79 0
41 43 79 0
c gate 80 78 -79 0
78 -80 0
-79 -80 0
-78 79 80 0
c gate 81 -78 79 0
-78 -81 0
79 -81 0
78 -79 81 0
c gate 82 -80 -81 0
-80 -82 0
-81 -82 0
80 81 82 0
c gate 83 77 82 0
77 -83 0
82 -83 0
-77 -82 83 0
c gate 84 -75 -83 0
-75 -84 0
-83 -84 0
75 83 84 0
c gate 85 2 16 0
2 -85 0
16 -85 0
-2 -16 85 0
c gate 86 1 17 0
1 -86 0
17 -86 0
-1 -17 86 0
c gate 87 -85 -86 0
-85 -87 0
-86 -87 0
85 86 87 0
c gate 88 85 86 0
85 -88 0
86 -88 0
-85 -86 88 0
c gate 89 -87 -88 0
-87 -89 0
-88 -89 0
87 88 89 0
c gate 90 -67 -69 0
-67 -90 0
-69 -90 0
67 69 90 0
c gate 91 -89 90 0
-89 -91 0
90 -91 0
89 -90 91 0
c gate 92 89 -90 0
89 -92 0
-90 -92 0
-89 90 92 0
c gate 93 -91 -92 0
-91 -93 0
-92 -93 0
91 92 93 0
c gate 94 3 15 0
3 -94 0
15 -94 0
-3 -15 94 0
c gate 95 4 14 0
4 -95 0
14 -95 0
-4 -14 95 0
c gate 96 5 13 0
5 -96 0
13 -96 0
-5 -13 96 0
c gate 97 -95 -96 0
-95 -97 0
-96 -97 0
95 96 97 0
c gate 98 95 96 0
95 -98 0
96 -98 0
-95 -96 98 0
c gate 99 -97 -98 0
-97 -99 0
-98 -99 0
97 98 99 0
c gate 100 94 99 0
94 -100 0
99 -100 0
-94 -99 100 0
c gate 101 -94 -99 0
-94 -101 0
-99 -101 0
94 99 101 0
c gate 102 -100 -101 0
-100 -102 0
-101 -102 0
100 101 102 0
c gate 103 6 12 0
6 -103 0
12 -103 0
-6 -12 103 0
c gate 104 7 11 0
7 -104 0
11 -104 0
-7 -11 104 0
c gate 105 8 10 0
8 -105 0
10 -105 0
-8 -10 105 0
c gate 106 -104 -105 0
-104 -106 0
-105 -106 0
104 105 106 0
c gate 107 104 105 0
104 -107 0
105 -107 0
-104 -105 107 0
c gate 108 -106 -107 0
-106 -108 0
-107 -108 0
106 107 108 0
c gate 109 103 108 0
103 -109 0
108 -109 0
-103 -108 109 0
c gate 110 -103 -108 0
-103 -110 0
-108 -110 0
103 108 110 0
c gate 111 -109 -110 0
-109 -111 0
-110 -111 0
109 110 111 0
c gate 112 -53 -57 0
-53 -112 0
-57 -112 0
53 57 112 0
c gate 113 111 112 0
111 -113 0
112 -113 0
-111 -112 113 0
c gate 114 -111 -112 0
-111 -114 0
-112 -114 0
111 112 114 0
c gate 115 -113 -114 0
-113 -115 0
-114 -115 0
113 114 115 0
c gate 116 102 115 0
102 -116 0
115 -116 0
-102 -115 116 0
c gate 117 -102 -115 0
-102 -117 0
-115 -117 0
102 115 117 0
c gate 118 -116 -117 0
-116 -118 0
-117 -118 0
116 117 118 0
c gate 119 -60 -72 0
-60 -119 0
-72 -119 0
60 72 119 0
c gate 120 118 119 0
118 -120 0
119 -120 0
-118 -119 120 0
c gate 121 -118 -119 0
-118 -121 0
-119 -121 0
118 119 121 0
c gate 122 -120 -121 0
-120 -122 0
-121 -122 0
120 121 122 0
c gate 123 93 122 0
93 -123 0
122 -123 0
-93 -122 123 0
c gate 124 -93 -122 0
-93 -124 0
-122 -124 0
93 122 124 0
c gate 125 -123 -124 0
-123 -125 0
-124 -125 0
123 124 125 0
c gate 126 -84 125 0
-84 -126 0
125 -126 0
84 -125 126 0
c gate 127 84 -125 0
84 -127 0
-125 -127 0
-84 125 127 0
c gate 128 -126 -127 0
-126 -128 0
-127 -128 0
126 127 128 0
c gate 129 80 128 0
80 -129 0
128 -129 0
-80 -128 129 0
c gate 130 -126 -129 0
-126 -130 0
-129 -130 0
126 129 130 0
c gate 131 -120 -123 0
-120 -131 0
-123 -131 0
120 123 131 0
c gate 132 1 18 0
1 -132 0
18 -132 0
-1 -18 132 0
c gate 133 2 17 0
2 -133 0
17 -133 0
-2 -17 133 0
c gate 134 3 16 0
3 -134 0
16 -134 0
-3 -16 134 0
c gate 135 -133 -134 0
-133 -135 0
-134 -135 0
133 134 135 0
c gate 136 133 134 0
133 -136 0
134 -136 0
-133 -134 136 0
c gate 137 -135 -136 0
-135 -137 0
-136 -137 0
135 136 137 0
c gate 138 132 137 0
132 -138 0
137 -138 0
-132 -137 138 0
c gate 139 -132 -137 0
-132 -139 0
-137 -139 0
132 137 139 0
c gate 140 -138 -139 0
-138 -140 0
-139 -140 0
138 139 140 0
c gate 141 -98 -100 0
-98 -141 0
-100 -141 0
98 100 141 0
c gate 142 140 -141 0
140 -142 0
-141 -142 0
-140 141 142 0
c gate 143 -140 141 0
-140 -143 0
141 -143 0
140 -141 143 0
c gate 144 -142 -143 0
-142 -144 0
-143 -144 0
142 143 144 0
c gate 145 88 144 0
88 -145 0
144 -145 0
-88 -144 145 0
c gate 146 -88 -144 0
-88 -146 0
-144 -146 0
88 144 146 0
c gate 147 -145 -146 0
-145 -147 0
-146 -147 0
145 146 147 0
c gate 148 -113 -116 0
-113 -148 0
-116 -148 0
113 116 148 0
c gate 149 4 15 0
4 -149 0
15 -149 0
-4 -15 149 0
c gate 150 5 14 0
5 -150 0
14 -150 0
-5 -14 150 0
c gate 151 6 13 0
6 -151 0
13 -151 0
-6 -13 151 0
c gate 152 -150 -151 0
-150 -152 0
-151 -152 0
150 151 152 0
c gate 153 150 151 0
150 -153 0
151 -153 0
-150 -151 153 0
c gate 154 -152 -153 0
-152 -154 0
-153 -154 0
152 153 154 0
c gate 155 149 154 0
149 -155 0
154 -155 0
-149 -154 155 0
c gate 156 -149 -154 0
-149 -156 0
-154 -156 0
149 154 156 0
c gate 157 -155 -156 0
-155 -157 0
-156 -157 0
155 156 157 0
c gate 158 -107 -109 0
-107 -158 0
-109 -158 0
107 109 158 0
c gate 159 7 12 0
7 -159 0
12 -159 0
-7 -12 159 0
c gate 160 8 11 0
8 -160 0
11 -160 0
-8 -11 160 0
c gate 161 9 10 0
9 -161 0
10 -161 0
-9 -10 161 0
c gate 162 -160 -161 0
-160 -162 0
-161 -162 0
160 161 162 0
c gate 163 160 161 0
160 -163 0
161 -163 0
-160 -161 163 0
c gate 164 -162 -163 0
-162 -164 0
-163 -164 0
162 163 164 0
c gate 165 159 164 0
159 -165 0
164 -165 0
-159 -164 165 0
c gate 166 -159 -164 0
-159 -166 0
-164 -166 0
159 164 166 0
c gate 167 -165 -166 0
-165 -167 0
-166 -167 0
165 166 167 0
c gate 168 -158 167 0
-158 -168 0
167 -168 0
158 -167 168 0
c gate 169 158 -167 0
158 -169 0
-167 -169 0
-158 167 169 0
c gate 170 -168 -169 0
-168 -170 0
-169 -170 0
168 169 170 0
c gate 171 157 170 0
157 -171 0
170 -171 0
-157 -170 171 0
c gate 172 -157 -170 0
-157 -172 0
-170 -172 0
157 170 172 0
c gate 173 -171 -172 0
-171 -173 0
-172 -173 0
171 172 173 0
c gate 174 -148 173 0
-148 -174 0
173 -174 0
148 -173 174 0
c gate 175 148 -173 0
148 -175 0
-173 -175 0
-148 173 175 0
c gate 176 -174 -175 0
-174 -176 0
-175 -176 0
174 175 176 0
c gate 177 147 176 0
147 -177 0
176 -177 0
-147 -176 177 0
c gate 178 -147 -176 0
-147 -178 0
-176 -178 0
147 176 178 0
c gate 179 -177 -178 0
-177 -179 0
-178 -179 0
177 178 179 0
c gate 180 -131 179 0
-131 -180 0
179 -180 0
131 -179 180 0
c gate 181 131 -179 0
131 -181 0
-179 -181 0
-131 179 181 0
c gate 182 -180 -181 0
-180 -182 0
-181 -182 0
180 181 182 0
c gate 183 92 182 0
92 -183 0
182 -183 0
-92 -182 183 0
c gate 184 -92 -182 0
-92 -184 0
-182 -184 0
92 182 184 0
c gate 185 -183 -184 0
-183 -185 0
-184 -185 0
183 184 185 0
c gate 186 130 -185 0
130 -186 0
-185 -186 0
-130 185 186 0
c gate 187 -130 185 0
-130 -187 0
185 -187 0
130 -185 187 0
c gate 188 -80 -128 0
-80 -188 0
-128 -188 0
80 128 188 0
c gate 189 -129 -188 0
-129 -189 0
-188 -189 0
129 188 189 0
c gate 190 3 11 0
3 -190 0
11 -190 0
-3 -11 190 0
c gate 191 4 10 0
4 -191 0
10 -191 0
-4 -10 191 0
c gate 192 190 191 0
190 -192 0
191 -192 0
-190 -191 192 0
c gate 193 2 12 0
2 -193 0
12 -193 0
-2 -12 193 0
c gate 194 -190 -191 0
-190 -194 0
-191 -194 0
190 191 194 0
c gate 195 -192 -194 0
-192 -195 0
-194 -195 0
192 194 195 0
c gate 196 193 195 0
193 -196 0
195 -196 0
-193 -195 196 0
c gate 197 -192 -196 0
-192 -197 0
-196 -197 0
192 196 197 0
c gate 198 -22 -24 0
-22 -198 0
-24 -198 0
22 24 198 0
c gate 199 -25 -198 0
-25 -199 0
-198 -199 0
25 198 199 0
c gate 200 -197 199 0
-197 -200 0
199 -200 0
197 -199 200 0
c gate 201 1 14 0
1 -201 0
14 -201 0
-1 -14 201 0
c gate 202 2 13 0
2 -202 0
13 -202 0
-2 -13 202 0
c gate 203 -201 -202 0
-201 -203 0
-202 -203 0
201 202 203 0
c gate 204 201 202 0
201 -204 0
202 -204 0
-201 -202 204 0
c gate 205 -203 -204 0
-203 -205 0
-204 -205 0
203 204 205 0
c gate 206 197 -199 0
197 -206 0
-199 -206 0
-197 199 206 0
c gate 207 -200 -206 0
-200 -207 0
-206 -207 0
200 206 207 0
c gate 208 205 207 0
205 -208 0
207 -208 0
-205 -207 208 0
c gate 209 -200 -208 0
-200 -209 0
-208 -209 0
200 208 209 0
c gate 210 -45 -47 0
-45 -210 0
-47 -210 0
45 47 210 0
c gate 211 -48 -210 0
-48 -211 0
-210 -211 0
48 210 211 0
c gate 212 -209 211 0
-209 -212 0
211 -212 0
209 -211 212 0
c gate 213 209 -211 0
209 -213 0
-211 -213 0
-209 211 213 0
c gate 214 -212 -213 0
-212 -214 0
-213 -214 0
212 213 214 0
c gate 215 204 214 0
204 -215 0
214 -215 0
-204 -214 215 0
c gate 216 -212 -215 0
-212 -216 0
-215 -216 0
212 215 216 0
c gate 217 -77 -82 0
-77 -217 0
-82 -217 0
77 82 217 0
c gate 218 -83 -217 0
-83 -218 0
-217 -218 0
83 217 218 0
c gate 219 216 -218 0
216 -219 0
-218 -219 0
-216 218 219 0
c gate 220 -216 218 0
-216 -220 0
218 -220 0
216 -218 220 0
c gate 221 -204 -214 0
-204 -221 0
-214 -221 0
204 214 221 0
c gate 222 -193 -195 0
-193 -222 0
-195 -222 0
193 195 222 0
c gate 223 -196 -222 0
-196 -223 0
-222 -223 0
196 222 223 0
c gate 224 3 10 0
3 -224 0
10 -224 0
-3 -10 224 0
c gate 225 2 11 0
2 -225 0
11 -225 0
-2 -11 225 0
c gate 226 224 225 0
224 -226 0
225 -226 0
-224 -225 226 0
c gate 227 -224 -225 0
-224 -227 0
-225 -227 0
224 225 227 0
c gate 228 1 12 0
1 -228 0
12 -228 0
-1 -12 228 0
c gate 229 -227 228 0
-227 -229 0
228 -229 0
227 -228 229 0
c gate 230 -226 -229 0
-226 -230 0
-229 -230 0
226 229 230 0
c gate 231 223 -230 0
223 -231 0
-230 -231 0
-223 230 231 0
c gate 232 1 13 0
1 -232 0
13 -232 0
-1 -13 232 0
c gate 233 -223 230 0
-223 -233 0
230 -233 0
223 -230 233 0
c gate 234 -231 -233 0
-231 -234 0
-233 -234 0
231 233 234 0
c gate 235 232 234 0
232 -235 0
234 -235 0
-232 -234 235 0
c gate 236 -231 -235 0
-231 -236 0
-235 -236 0
231 235 236 0
c gate 237 -205 -207 0
-205 -237 0
-207 -237 0
205 207 237 0
c gate 238 -208 -237 0
-208 -238 0
-237 -238 0
208 237 238 0
c gate 239 -236 238 0
-236 -239 0
238 -239 0
236 -238 239 0
c gate 240 -215 239 0
-215 -240 0
239 -240 0
215 -239 240 0
c gate 241 -221 240 0
-221 -241 0
240 -241 0
221 -240 241 0
c gate 242 -220 241 0
-220 -242 0
241 -242 0
220 -241 242 0
c gate 243 -219 242 0
-219 -243 0
242 -243 0
219 -242 243 0
c gate 244 189 243 0
189 -244 0
243 -244 0
-189 -243 244 0
c gate 245 -187 244 0
-187 -245 0
244 -245 0
187 -244 245 0
c gate 246 -186 245 0
-186 -246 0
245 -246 0
186 -245 246 0
c PO
246 0
